RAW/D/fspd/SCA8-6.vrpspd_seed-6.out
971.8189	0.556	29.417
