RAW/D/fspd/SCA8-6.vrpspd_seed-6.sol
Route #1: 31 22 29 41 49
Route #2: 23 30 9 33 43 25 11 37
Route #3: 17 46 19 28 50
Route #4: 8 34 21 39 26
Route #5: 14 36 27 3 24 15
Route #6: 1 47 12 44
Route #7: 35 2 6 32 20 13
Route #8: 45 48 18 10 5
Route #9: 7 4 40 42 16 38
Cost 9718189.000000